Minimize
  - 40 y_0 - 44 y_2 - 47 y_3 - 25 y_4 - 17 y_5 - 43 y_6 - 33 y_7 - 34 y_8
   - 46 y_9 - 40 y_10 - 22 y_11 - 30 y_12 - 49 y_13 - 44 y_14 - 19 y_15
   - 29 y_16 - 40 y_17 - 20 y_18 - 37 y_19 + 659 Constant
Subject To
 c_0: y_12 = 1
 c_1_0: y_0 >= 1
 c_1_1: y_1 >= 1
 c_1_2: y_2 >= 1
 c_1_3: y_3 + y_14 >= 1
 c_1_4: y_4 + y_11 >= 1
 c_1_5: y_5 >= 1
 c_1_6: y_6 + y_10 >= 1
 c_1_7: y_7 >= 1
 c_1_8: y_8 + y_12 >= 1
 c_1_9: y_9 >= 1
 c_1_10: y_6 + y_10 >= 1
 c_1_11: y_4 + y_11 >= 1
 c_1_12: y_8 + y_12 >= 1
 c_1_13: y_13 >= 1
 c_1_14: y_3 + y_14 >= 1
 c_1_15: y_15 + y_18 >= 1
 c_1_16: y_16 >= 1
 c_1_17: y_17 >= 1
 c_1_18: y_15 + y_18 >= 1
 c_1_19: y_19 >= 1
Bounds
 Constant = 1
Binaries
 y_0 y_1 y_2 y_3 y_4 y_5 y_6 y_7 y_8 y_9 y_10 y_11 y_12 y_13 y_14 y_15 y_16
 y_17 y_18 y_19
End
